 NOTE: Siesta V5 introduces some new defaults for basis-set generation
 NOTE: which might lead to slightly different numerical results.
 NOTE: Please see the manual for full details and compatibility measures.

reinit: Reading from file relaxation.fdf

reinit: -----------------------------------------------------------------------
reinit: System Name:
reinit: -----------------------------------------------------------------------
reinit: System Label: relaxation
reinit: -----------------------------------------------------------------------

initatom: Reading input for the pseudopotentials and atomic orbitals ----------
Species number:   1 Atomic number:   14 Label: Si

Ground state valence configuration (from tables):   3s02  3p02  3d00  4f00

---- Processing specs for species: Si
Reading pseudopotential information in PSML from:
  Si.psml
PSML file version: 1.1
GGA--PBE XC_GGA_X_PBE--XC_GGA_C_PBE pb
PSML uuid: 78f1be70-be41-11e7-6330-179677bb7285

---- Pseudopotential check for Si

Pseudized shells:
3s( 2.00) rc: 1.60
3p( 2.00) rc: 1.72
3d( 0.00) rc: 1.92
Valence configuration for ps generation: 3s:3p: Total charge:   4.000000
For Si, standard SIESTA heuristics set lmxkb to 3
 (one more than the basis l, including polarization orbitals).
Use PS.lmax or PS.KBprojectors blocks to override.
Si pseudopotential only contains V_ls up to l=2 -- lmxkb reset.

<basis_specs>
Si                   Z=  14    Mass=  28.090        Charge= 0.17977+309
Lmxo=2 Lmxkb= 2    BasisType=split      Semic=F
L=0  Nsemic=0  Cnfigmx=3
          i=1  nzeta=2  polorb=0  (3s)
            splnorm:   0.15000
               vcte:    40.000
               rinn:  -0.90000
               qcoe:    0.0000
               qyuk:    0.0000
               qwid:   0.10000E-01
                rcs:    0.0000      0.0000
            lambdas:    1.0000      1.0000
L=1  Nsemic=0  Cnfigmx=3
          i=1  nzeta=2  polorb=1  (3p)  (to be polarized perturbatively)
            splnorm:   0.15000
               vcte:    40.000
               rinn:  -0.90000
               qcoe:    0.0000
               qyuk:    0.0000
               qwid:   0.10000E-01
                rcs:    0.0000      0.0000
            lambdas:    1.0000      1.0000
L=2  Nsemic=0  Cnfigmx=3
          i=1  nzeta=0  polorb=0  (3d)  (perturbative polarization orbital) (from 3p)
L=0  Nkbl=1  erefs: 0.17977+309
L=1  Nkbl=1  erefs: 0.17977+309
L=2  Nkbl=1  erefs: 0.17977+309
</basis_specs>

Using PAO.SplitTailNorm
atom: Called for Si                    (Z =  14)
Maximum radius (at nrval) set to   50.00000 8518

read_vps: Pseudopotential generation method:
read_vps: ONCVPSP-3.Hamann's oncvpsp
Valence charge in pseudo generation:    4.00000

read_vps: Pseudopotential includes a core correction:
read_vps: Pseudo-core for xc-correction

xc_check: Exchange-correlation functional:
xc_check: GGA Perdew, Burke & Ernzerhof 1996
Got Vlocal (oncv-fit) from psml data
Choosing vlocal chloc cutoff:  4.644478
qtot up to nchloc:    4.00055554
atom: Maximum radius for chlocal:    4.64448
atom: Maximum radius for r*vlocal+2*Zval:    4.64448
Reading KB projs from Si psml data
Using scalar-relativistic projectors in PSML file

PSML: Kleinman-Bylander projectors:
   l= 0   rc=  1.623671   Ekb= 10.337930
   l= 0   rc=  1.623671   Ekb=  1.659765
   l= 1   rc=  1.743879   Ekb=  5.142565
   l= 1   rc=  1.743879   Ekb=  1.156614
   l= 2   rc=  1.941952   Ekb= -4.854621
   l= 2   rc=  1.941952   Ekb= -0.976194

PSML: Total number of  Kleinman-Bylander projectors:  18
atom: -------------------------------------------------------------------------

atom: SANKEY-TYPE ORBITALS:
atom: Selected multiple-zeta basis: split

SPLIT: Orbitals with angular momentum L= 0

SPLIT: Basis orbitals for state 3s

SPLIT: PAO cut-off radius determined from an
SPLIT: energy shift=  0.022050 Ry
Split based on tail norm

   izeta = 1
                 lambda =    1.000000
                     rc =    4.897820
                 energy =   -0.769877
                kinetic =    0.629341
    potential(screened) =   -1.399219
       potential(ionic) =   -3.834541

   izeta = 2
                 rmatch =    3.647683
              splitnorm =    0.150000
                 energy =   -0.333761
                kinetic =    1.440104
    potential(screened) =   -1.773865
       potential(ionic) =   -4.344738

SPLIT: Orbitals with angular momentum L= 1

SPLIT: Basis orbitals for state 3p

SPLIT: PAO cut-off radius determined from an
SPLIT: energy shift=  0.022050 Ry
Split based on tail norm

   izeta = 1
                 lambda =    1.000000
                     rc =    6.081107
                 energy =   -0.275211
                kinetic =    0.911412
    potential(screened) =   -1.186622
       potential(ionic) =   -3.441905

   izeta = 2
                 rmatch =    4.575182
              splitnorm =    0.150000
                 energy =   -0.129381
                kinetic =    1.409591
    potential(screened) =   -1.538972
       potential(ionic) =   -3.987345

POLgen: Perturbative polarization orbital with L=  2

POLgen: Polarization orbital for state 3p
Split based on tail norm

   izeta = 1
                     rc =    6.081107
                 energy =    0.393578
                kinetic =    1.684997
    potential(screened) =   -1.291419
       potential(ionic) =   -3.466595
atom: Total number of Sankey-type orbitals: 13

atm_pop: Valence configuration (for local Pseudopot. screening):
 3s( 2.00)
 3p( 2.00)
 3d( 0.00)
Vna: chval, zval:    4.00000   4.00000

Vna:  Cut-off radius for the neutral-atom potential:   6.081107
comcore: Pseudo-core radius Rcore=  2.875880

atom: _________________________________________________________________________

prinput: Basis input

PAO.BasisType split

%block ChemicalSpeciesLabel
    1   14 Si                      # Species index, atomic number, species label
%endblock ChemicalSpeciesLabel

%block PAO.Basis                 # Define Basis set
# WARNING: This information might be incomplete!
Si                    2                    # Species label, number of l-shells
 n=3   0   2                         # n, l, Nzeta
   4.898      3.648
   1.000      1.000
 n=3   1   2 P   1                   # n, l, Nzeta, Polarization, NzetaPol
   6.081      4.575
   1.000      1.000
%endblock PAO.Basis

prinput: ----------------------------------------------------------------------

Dumping basis to NetCDF file Si.ion.nc
coor:   Atomic-coordinates input format  =     Cartesian coordinates
coor:                                          (in Angstroms)

siesta: Atomic coordinates (Bohr) and species
siesta:     -5.13061  -5.13061  -5.13061  1        1
siesta:     -5.13061  -0.00000  -0.00000  1        2
siesta:     -0.00000  -5.13061  -0.00000  1        3
siesta:     -0.00000  -0.00000  -5.13061  1        4
siesta:     -2.56436  -2.56436  -2.56436  1        5
siesta:     -2.56436   2.56625   2.56625  1        6
siesta:      2.56625  -2.56436   2.56625  1        7
siesta:      2.56625   2.56625  -2.56436  1        8

siesta: System type = bulk

initatomlists: Number of atoms, orbitals, and projectors:      8   104   144

coxmol: Writing XMOL coordinates into file relaxation.xyz

siesta: ******************** Simulation parameters ****************************
siesta:
siesta: The following are some of the parameters of the simulation.
siesta: A complete list of the parameters used, including default values,
siesta: can be found in file out.fdf
siesta:
redata: Spin configuration                          = none
redata: Number of spin components                   = 1
redata: Time-Reversal Symmetry                      = T
redata: Spin spiral                                 = F
redata: Long output                                 =   F
redata: Number of Atomic Species                    =        1
redata: Charge density info will appear in .RHO file
redata: Write Mulliken charges (when)               = none
redata: Write Mulliken Pop.                         = NO
redata: Write Hirshfeld charges (when)              = none
redata: Write Voronoi charges (when)                = none
redata: Write spin charge (when)                    = none
redata: Matel table size (NRTAB)                    =     1024
redata: Mesh Cutoff                                 =   300.0000 Ry
redata: Net charge of the system                    =     0.0000 |e|
redata: Min. number of SCF Iter                     =        0
redata: Max. number of SCF Iter                     =     1000
redata: SCF convergence failure will abort job
redata: SCF mix quantity                            = Hamiltonian
redata: Mix DM or H after convergence               =   F
redata: Recompute H after scf cycle                 =   F
redata: Mix DM in first SCF step                    =   T
redata: Write Pulay info on disk                    =   F
redata: New DM Occupancy tolerance                  = 0.000000000001
redata: No kicks to SCF
redata: DM Mixing Weight for Kicks                  =     0.5000
redata: Require Harris convergence for SCF          =   F
redata: Harris energy tolerance for SCF             =     0.000100 eV
redata: Require DM convergence for SCF              =   T
redata: DM tolerance for SCF                        =     0.000100
redata: Require EDM convergence for SCF             =   F
redata: EDM tolerance for SCF                       =     0.001000 eV
redata: Require H convergence for SCF               =   T
redata: Hamiltonian tolerance for SCF               =     0.001000 eV
redata: Require (free) Energy convergence for SCF   =   F
redata: (free) Energy tolerance for SCF             =     0.000100 eV
redata: Using DFT-D3 dispersion                     =   F
redata: Using Saved Data (generic)                  =   F
redata: Use continuation files for DM               =   T
redata: Neglect nonoverlap interactions             =   F
redata: Method of Calculation                       = Diagonalization
redata: Electronic Temperature                      =   299.9863 K
redata: Fix the spin of the system                  =   F
redata: Max. number of TDED Iter                    =        1
redata: Number of TDED substeps                     =        3
redata: Dynamics option                             = CG coord. optimization
redata: Variable cell                               =   T
redata: Use continuation files for CG               =   F
redata: Max atomic displ per move                   =     0.1058 Ang
redata: Maximum number of optimization moves        =      100
redata: Force tolerance                             =     0.0050 eV/Ang
redata: Stress tolerance                            =     0.0100 GPa
mix.SCF: Pulay mixing                            = Pulay
mix.SCF:    Variant                              = stable
mix.SCF:    History steps                        = 2
mix.SCF:    Linear mixing weight                 =     0.250000
mix.SCF:    Mixing weight                        =     0.250000
mix.SCF:    SVD condition                        = 0.1000E-07
redata: Save all siesta data in one NC              =   F
redata: ***********************************************************************

%block SCF.Mixers
  Pulay
%endblock SCF.Mixers

[...]

outcell: Cell vector modules (Ang)   :    5.430000    5.430000    5.430000
outcell: Cell angles (23,13,12) (deg):     90.0000     90.0000     90.0000
outcell: Cell volume (Ang**3)        :    160.1030
<dSpData1D:S at geom step 0
  <sparsity:sparsity for geom step 0
    nrows_g=104 nrows=104 sparsity=7.1132 nnzs=76936, refcount: 7>
  <dData1D:(new from dSpData1D) n=76936, refcount: 1>
refcount: 1>
new_DM -- step:     1
Initializing Density Matrix...

Attempting to read DM from file... Failed...
DM filled with atomic data:
<dSpData2D:DM initialized from atoms
  <sparsity:sparsity for geom step 0
    nrows_g=104 nrows=104 sparsity=7.1132 nnzs=76936, refcount: 8>
  <dData2D:DM n=76936 m=1, refcount: 1>
refcount: 1>
No. of atoms with KB's overlaping orbs in proc 0. Max # of overlaps:      56     161

InitMesh: MESH = 60 x 60 x 60 = 216000
InitMesh: Mesh cutoff (required, used) =   300.000   337.446 Ry
New grid distribution [1]: sub = 2

stepf: Fermi-Dirac step function

siesta: Program's energy decomposition (eV):
siesta: Ebs     =      -279.109875
siesta: Eions   =      1551.437238
siesta: Ena     =       483.609895
siesta: Ekin    =       336.209309
siesta: Enl     =       131.170717
siesta: Eso     =         0.000000
siesta: Edftu   =         0.000000
siesta: DEna    =        17.247223
siesta: DUscf   =         1.062794
siesta: DUext   =         0.000000
siesta: Ex      =      -296.711131
siesta: Ec      =       -40.672328
siesta: Exc     =      -337.383458
siesta: EbV     =         0.000000
siesta: eta*DQ  =         0.000000
siesta: Emadel  =         0.000000
siesta: Emeta   =         0.000000
siesta: Emolmec =         0.000000
siesta: Ekinion =         0.000000
siesta: Eharris =      -929.151236
siesta: Etot    =      -919.520758
siesta: FreeEng =      -919.520758

SCF Convergence by DM+H criterion
max |DM_out - DM_in|         :     0.0000978814
max |H_out - H_in|      (eV) :     0.0009656457
SCF cycle converged after 4 iterations

Using DM_out to compute the final energy and forces
No. of atoms with KB's overlaping orbs in proc 0. Max # of overlaps:      56     161

siesta: E_KS(eV) =             -919.5234

siesta: E_KS - E_eggbox =      -919.5234

siesta: Atomic forces (eV/Ang):
   Tot   -0.000646   -0.000646   -0.000646
   Max    0.007217
   Res    0.007137    sqrt( Sum f_i^2 / 3N )
   Max    0.007217    constrained

Stress tensor Voigt[x,y,z,yz,xz,xy] (kbar):      -14.08      -14.08      -14.08        0.21        0.21        0.21
(Free)E + p*V (eV/cell)     -918.1168
Target enthalpy (eV/cell)     -919.5234

siesta: Stress tensor (static) (eV/Ang**3):
        -0.008785    0.000129    0.000129
         0.000129   -0.008785    0.000129
         0.000129    0.000129   -0.008785

siesta: Pressure (static):         14.07531800  kBar

siesta: Stress tensor (total) (eV/Ang**3):
        -0.008785    0.000129    0.000129
         0.000129   -0.008785    0.000129
         0.000129    0.000129   -0.008785

siesta: Pressure (total):         14.07531800  kBar

cgvc: No target stress found, assuming hydrostatic MD.TargetPressure.

cgvc: Target stress (kBar)
cgvc:        -0.000       0.000       0.000
cgvc:         0.000      -0.000       0.000
cgvc:         0.000       0.000      -0.000

                        Begin CG opt. move =      1
 Kpoints in:           18 . Kpoints trimmed:           14

[...]

outcell: Cell vector modules (Ang)   :    5.496182    5.496182    5.496182
outcell: Cell angles (23,13,12) (deg):     90.0203     90.0203     90.0203
outcell: Cell volume (Ang**3)        :    166.0287
<dSpData1D:S at geom step 1
  <sparsity:sparsity for geom step 1
    nrows_g=104 nrows=104 sparsity=7.0954 nnzs=76744, refcount: 7>
  <dData1D:(new from dSpData1D) n=76744, refcount: 1>
refcount: 1>
new_DM -- step:     2
Re-using DM from previous geometries...
Number of DMs in history: 1
 DM extrapolation coefficients:
1   1.00000
New DM after history re-use:
<dSpData2D:SpM extrapolated using coords
  <sparsity:sparsity for geom step 1
    nrows_g=104 nrows=104 sparsity=7.0954 nnzs=76744, refcount: 9>
  <dData2D:(temp array for extrapolation) n=76744 m=1, refcount: 1>
refcount: 1>
Note: For starting DM, Qtot, Tr[D*S] =         32.00000000         31.61102970
No. of atoms with KB's overlaping orbs in proc 0. Max # of overlaps:      56     161

[...]

        iscf     Eharris(eV)        E_KS(eV)     FreeEng(eV)     dDmax    Ef(eV) dHmax(eV)
   scf:    1     -920.280807     -919.509336     -919.509336  0.029439 -3.283240  0.035405
   scf:    2     -919.509738     -919.509573     -919.509573  0.001394 -3.307134  0.006789
   scf:    3     -919.509599     -919.509587     -919.509587  0.000238 -3.303288  0.000495
   scf:    4     -919.509588     -919.509587     -919.509588  0.000008 -3.303398  0.000301

[...]

cgvc: Finished line minimization    1.  Mean atomic displacement =    0.0284

[...]

outcell: Cell vector modules (Ang)   :    5.461933    5.461933    5.461933
outcell: Cell angles (23,13,12) (deg):     89.8674     89.8674     89.8674
outcell: Cell volume (Ang**3)        :    162.9429
<dSpData1D:S at geom step 3
  <sparsity:sparsity for geom step 3
    nrows_g=104 nrows=104 sparsity=7.1043 nnzs=76840, refcount: 7>
  <dData1D:(new from dSpData1D) n=76840, refcount: 1>
refcount: 1>
new_DM -- step:     4
Re-using DM from previous geometries...
Number of DMs in history: 1
 DM extrapolation coefficients:
1   1.00000
New DM after history re-use:
<dSpData2D:SpM extrapolated using coords
  <sparsity:sparsity for geom step 3
    nrows_g=104 nrows=104 sparsity=7.1043 nnzs=76840, refcount: 9>
  <dData2D:(temp array for extrapolation) n=76840 m=1, refcount: 1>
refcount: 1>
Note: For starting DM, Qtot, Tr[D*S] =         32.00000000         31.96571684
No. of atoms with KB's overlaping orbs in proc 0. Max # of overlaps:      56     161

[...]

outcell: Cell vector modules (Ang)   :    5.456822    5.456822    5.456822
outcell: Cell angles (23,13,12) (deg):     90.0017     90.0017     90.0017
outcell: Cell volume (Ang**3)        :    162.4873
<dSpData1D:S at geom step 4
  <sparsity:sparsity for geom step 4
    nrows_g=104 nrows=104 sparsity=7.0954 nnzs=76744, refcount: 7>
  <dData1D:(new from dSpData1D) n=76744, refcount: 1>
refcount: 1>
new_DM -- step:     5
Re-using DM from previous geometries...
Number of DMs in history: 1
 DM extrapolation coefficients:
1   1.00000
New DM after history re-use:
<dSpData2D:SpM extrapolated using coords
  <sparsity:sparsity for geom step 4
    nrows_g=104 nrows=104 sparsity=7.0954 nnzs=76744, refcount: 9>
  <dData2D:(temp array for extrapolation) n=76744 m=1, refcount: 1>
refcount: 1>
No. of atoms with KB's overlaping orbs in proc 0. Max # of overlaps:      56     161

[...]

cgvc: Finished line minimization    2.  Mean atomic displacement =    0.0013

[...]

                        Begin CG opt. move =      6
 Kpoints in:           18 . Kpoints trimmed:           14

siesta: k-grid: Number of k-points = 14
siesta: k-points from Monkhorst-Pack grid
siesta: k-cutoff (effective) =     8.184 Ang
siesta: k-point supercell and displacements
siesta: k-grid:     3     0     0      0.000
siesta: k-grid:     0     3     0      0.000
siesta: k-grid:     0     0     3      0.000

superc: Internal auxiliary supercell:     3 x     3 x     3  =      27
superc: Number of atoms, orbitals, and projectors:    216   2808   3888

[...]

outcell: Cell vector modules (Ang)   :    5.455888    5.455888    5.455888
outcell: Cell angles (23,13,12) (deg):     90.0008     90.0008     90.0008
outcell: Cell volume (Ang**3)        :    162.4039
<dSpData1D:S at geom step 6
  <sparsity:sparsity for geom step 6
    nrows_g=104 nrows=104 sparsity=7.0954 nnzs=76744, refcount: 7>
  <dData1D:(new from dSpData1D) n=76744, refcount: 1>
refcount: 1>
new_DM -- step:     7
Re-using DM from previous geometries...
Number of DMs in history: 1
 DM extrapolation coefficients:
1   1.00000
New DM after history re-use:
<dSpData2D:SpM extrapolated using coords
  <sparsity:sparsity for geom step 6
    nrows_g=104 nrows=104 sparsity=7.0954 nnzs=76744, refcount: 9>
  <dData2D:(temp array for extrapolation) n=76744 m=1, refcount: 1>
refcount: 1>
No. of atoms with KB's overlaping orbs in proc 0. Max # of overlaps:      56     161

InitMesh: MESH = 60 x 60 x 60 = 216000
InitMesh: Mesh cutoff (required, used) =   300.000   334.252 Ry
New grid distribution [1]: sub = 2

        iscf     Eharris(eV)        E_KS(eV)     FreeEng(eV)     dDmax    Ef(eV) dHmax(eV)
   scf:    1     -919.536502     -919.533192     -919.533193  0.000124 -3.317208  0.000129
   scf:    2     -919.533192     -919.533192     -919.533193  0.000006 -3.317295  0.000025

SCF Convergence by DM+H criterion
max |DM_out - DM_in|         :     0.0000057876
max |H_out - H_in|      (eV) :     0.0000248324
SCF cycle converged after 2 iterations

Using DM_out to compute the final energy and forces
No. of atoms with KB's overlaping orbs in proc 0. Max # of overlaps:      56     161

siesta: E_KS(eV) =             -919.5332

siesta: Atomic forces (eV/Ang):
   Tot   -0.000787   -0.000787   -0.000787
   Max    0.000643
   Res    0.000554    sqrt( Sum f_i^2 / 3N )
   Max    0.000643    constrained

Stress tensor Voigt[x,y,z,yz,xz,xy] (kbar):        0.02        0.02        0.02        0.00        0.00        0.00
(Free)E + p*V (eV/cell)     -919.5356
Target enthalpy (eV/cell)     -919.5332

siesta: Stress tensor (static) (eV/Ang**3):
         0.000015    0.000003    0.000003
         0.000003    0.000015    0.000003
         0.000003    0.000003    0.000015

siesta: Pressure (static):         -0.02330899  kBar

siesta: Stress tensor (total) (eV/Ang**3):
         0.000015    0.000003    0.000003
         0.000003    0.000015    0.000003
         0.000003    0.000003    0.000015

siesta: Pressure (total):         -0.02330899  kBar

outcoor: Relaxed atomic coordinates (Ang):
   -2.72768118   -2.72768118   -2.72768118   1       1  Si
   -2.72771835    0.00024436    0.00024436   1       2  Si
    0.00024436   -2.72771835    0.00024436   1       3  Si
    0.00024436    0.00024436   -2.72771835   1       4  Si
   -1.36367903   -1.36367903   -1.36367903   1       5  Si
   -1.36371620    1.36424651    1.36424651   1       6  Si
    1.36424651   -1.36371620    1.36424651   1       7  Si
    1.36424651    1.36424651   -1.36371620   1       8  Si

outcell: Unit cell vectors (Ang):
        5.455888   -0.000037   -0.000037
       -0.000037    5.455888   -0.000037
       -0.000037   -0.000037    5.455888

outcell: Cell vector modules (Ang)   :    5.455888    5.455888    5.455888
outcell: Cell angles (23,13,12) (deg):     90.0008     90.0008     90.0008
outcell: Cell volume (Ang**3)        :    162.4039

coxmol: Writing XMOL coordinates into file relaxation.xyz

siesta: Program's energy decomposition (eV):
siesta: Ebs     =      -278.391885
siesta: Eions   =      1551.437238
siesta: Ena     =       484.398527
siesta: Ekin    =       333.709394
siesta: Enl     =       130.678023
siesta: Eso     =         0.000000
siesta: Edftu   =         0.000000
siesta: DEna    =        18.406112
siesta: DUscf   =         1.041199
siesta: DUext   =         0.000000
siesta: Ex      =      -295.764291
siesta: Ec      =       -40.564918
siesta: Exc     =      -336.329209
siesta: EbV     =         0.000000
siesta: eta*DQ  =         0.000000
siesta: Emadel  =         0.000000
siesta: Emeta   =         0.000000
siesta: Emolmec =         0.000000
siesta: Ekinion =         0.000000
siesta: Eharris =      -919.533192
siesta: Etot    =      -919.533192
siesta: FreeEng =      -919.533193

siesta: Final energy (eV):
siesta:  Band Struct. =    -278.391885
siesta:       Kinetic =     333.709394
siesta:       Hartree =      61.214258
siesta:         Edftu =       0.000000
siesta:       Eso     =       0.000000
siesta:    Ext. field =       0.000000
siesta:         Exch. =    -295.764291
siesta:         Corr. =     -40.564918
siesta:     Bulk bias =       0.000000
siesta:   Exch.-corr. =    -336.329209
siesta:  Ion-electron =    -383.054097
siesta:       Ion-ion =    -595.073538
siesta:       Ekinion =       0.000000
siesta: D3 dispersion =       0.000000
siesta:         Total =    -919.533192
siesta:         Fermi =      -3.317295

siesta: Stress tensor (static) (eV/Ang**3):
siesta:     0.000015    0.000003    0.000003
siesta:     0.000003    0.000015    0.000003
siesta:     0.000003    0.000003    0.000015

siesta: Constrained stress tensor (static) (eV/Ang**3):
siesta:     0.000015    0.000003    0.000003
siesta:     0.000003    0.000015    0.000003
siesta:     0.000003    0.000003    0.000015

siesta: Cell volume =        162.403879 Ang**3

siesta: Pressure (static):
siesta:                Solid            Molecule  Units
siesta:          -0.00000016          0.00000004  Ry/Bohr**3
siesta:          -0.00001455          0.00000376  eV/Ang**3
siesta:          -0.02330899          0.00602721  kBar
(Free)E+ p_basis*V_orbitals  =        -915.122481
(Free)Eharris+ p_basis*V_orbitals  =        -915.122481

cite: Please see "relaxation.bib" for an exhaustive BiBTeX file.
cite: Please clearly indicate Siesta version in published work: 5.2.1
cite: This calculation has made use of the following articles
cite: which are encouraged to be cited in a published work.
        Primary SIESTA paper
          DOI: www.doi.org/10.1088/0953-8984/14/11/302

Routine            Calls   Time/call    Tot.time        %
siesta                 1      96.933      96.933   100.00
Setup                  1       0.268       0.268     0.28
bands                  1       0.000       0.000     0.00
KSV_init               1       0.000       0.000     0.00
IterGeom               7      13.808      96.657    99.72
geom_init              7       3.135      21.942    22.64
state_init             7       0.062       0.434     0.45
hsparse                7       0.014       0.098     0.10
overlap                7       0.036       0.254     0.26
Setup_H0               7       1.834      12.840    13.25
naefs                 14       0.000       0.003     0.00
dnaefs                14       0.000       0.002     0.00
MolMec                14       0.000       0.000     0.00
kinefsm               14       0.028       0.399     0.41
nlefsm                14       0.152       2.125     2.19
DHSCF_Init             7       1.652      11.562    11.93
DHSCF1                 7       0.030       0.210     0.22
InitMesh               7       0.030       0.210     0.22
INITMESH               7       0.000       0.000     0.00
DHSCF2                 7       1.622      11.352    11.71
REMESH                 7       0.134       0.935     0.96
REORD                181       0.000       0.055     0.06
PHION                  7       1.328       9.294     9.59
COMM_BSC             173       0.000       0.041     0.04
POISON                45       0.009       0.394     0.41
fft                   90       0.003       0.259     0.27
setup_H               31       1.415      43.856    45.24
DHSCF                 38       1.820      69.165    71.35
DHSCF3                38       1.378      52.371    54.03
rhoofd                38       0.733      27.848    28.73
XC                    38       0.231       8.777     9.05
GXC-CellXC            38       0.230       8.756     9.03
gridxc@cellXC         38       0.230       8.756     9.03
vmat                  38       0.401      15.256    15.74
IterSCF               24       1.998      47.954    49.47
compute_dm            24       0.530      12.727    13.13
diagon                24       0.529      12.708    13.11
c-eigval             336       0.011       3.819     3.94
c-buildHS            336       0.006       1.971     2.03
cdiag                672       0.007       4.889     5.04
cdiag1               672       0.000       0.278     0.29
cdiag2               672       0.001       0.759     0.78
cdiag3               672       0.006       3.779     3.90
c-eigvec             336       0.015       5.147     5.31
cdiag4               336       0.000       0.029     0.03
c-buildD             336       0.011       3.716     3.83
MIXER                 17       0.001       0.010     0.01
PostSCF                7       3.822      26.756    27.60
FINAL_HF               7       3.822      26.756    27.60
DHSCF4                 7       2.399      16.794    17.32
dfscf                  7       2.242      15.692    16.19
overfsm                7       0.021       0.148     0.15
writeHSX               7       0.001       0.007     0.01
state_analysis         7       0.000       0.001     0.00
siesta_move            7       0.000       0.003     0.00
Analysis               1       0.002       0.002     0.00
optical                1       0.000       0.000     0.00

>> End of run:  15-MAY-2025  12:50:18
Job completed